param dati := # per ogni [riga, colonna, numero] verifica se è stato assegnato
[1, 1, 1] 1
[1, 4, 2] 1
[2, 1, 2] 1
[2, 5, 3] 1
[3, 3, 4] 1
[3, 6, 1] 1
[4, 3, 3] 1
[4, 6, 5] 1
[4, 9, 6] 1
[5, 2, 7] 1
[5, 8, 4] 1
[6, 1, 8] 1
[6, 4, 9] 1
[6, 7, 2] 1
[7, 1, 9] 1
[7, 4, 8] 1
[7, 7, 7] 1
[8, 2, 3] 1
[8, 5, 9] 1
[8, 8, 1] 1
[9, 3, 2] 1
[9, 5, 6] 1
[9, 9, 5] 1;